sat
(:max-memory         17.95
 :memory             17.95
 :nlsat-propagations 8
 :nlsat-stages       4
 :num-allocs         18338
 :rlimit-count       855
 :time               0.00
 :total-time         0.01)
